SECTION Graph
Nodes 323
Edges 592
E 1 284 1
E 1 285 1
E 1 289 8
E 2 277 44
E 2 288 4
E 3 277 12
E 3 284 44
E 4 277 1
E 5 12 5
E 5 282 1
E 5 283 1
E 6 8 1
E 6 283 12
E 6 287 6
E 7 8 12
E 7 9 1
E 7 282 1
E 7 283 1
E 8 10 1
E 8 286 6
E 9 10 12
E 9 281 1
E 10 285 6
E 11 13 1
E 11 18 5
E 11 279 12
E 12 279 1
E 12 280 1
E 13 14 12
E 13 15 1
E 13 20 5
E 14 16 1
E 14 279 1
E 14 280 1
E 15 16 12
E 15 22 5
E 16 278 1
E 17 24 5
E 17 275 1
E 17 276 1
E 18 20 1
E 18 276 12
E 19 20 12
E 19 21 1
E 19 275 1
E 19 276 1
E 20 22 1
E 21 22 12
E 21 274 1
E 23 25 1
E 23 30 5
E 23 272 12
E 24 272 1
E 24 273 1
E 25 26 12
E 25 27 1
E 25 32 5
E 26 28 1
E 26 272 1
E 26 273 1
E 27 28 12
E 27 34 5
E 28 271 1
E 29 265 23
E 29 270 1
E 30 32 1
E 30 270 12
E 31 32 12
E 31 33 1
E 31 264 24
E 31 270 1
E 32 34 1
E 33 34 12
E 33 263 24
E 35 255 21
E 35 266 1
E 35 267 3
E 35 268 9
E 36 268 6
E 36 269 1
E 37 262 17
E 37 266 9
E 37 268 1
E 37 269 6
E 38 267 9
E 38 268 3
E 39 218 6
E 39 220 1
E 39 221 1
E 39 247 46
E 40 42 1
E 40 221 12
E 40 254 46
E 40 256 48
E 40 284 175
E 41 42 12
E 41 43 1
E 41 220 1
E 41 221 1
E 42 44 1
E 43 44 12
E 43 219 1
E 45 167 7
E 45 177 1
E 45 180 1
E 45 191 5
E 46 191 6
E 46 199 1
E 47 177 5
E 47 191 1
E 48 180 5
E 48 191 1
E 48 193 3
E 48 199 6
E 49 81 1
E 49 82 5
E 50 82 6
E 51 82 1
E 52 81 5
E 52 82 1
E 53 230 14
E 53 240 2
E 53 243 1
E 53 244 1
E 54 243 12
E 54 246 1
E 55 94 1
E 55 95 1
E 55 97 1
E 55 98 6
E 56 98 5
E 56 99 1
E 56 100 1
E 56 102 3
E 57 75 33
E 57 95 6
E 57 98 1
E 57 99 5
E 58 97 6
E 58 98 1
E 58 100 5
E 58 153 48
E 59 73 2
E 59 89 33
E 60 76 3
E 60 81 32
E 60 101 33
E 61 77 23
E 61 224 3
E 61 227 1
E 61 232 5
E 62 178 64
E 62 233 1
E 62 237 1
E 62 238 2
E 63 83 1
E 63 84 5
E 64 84 6
E 64 85 1
E 64 86 1
E 64 87 1
E 65 84 1
E 65 85 6
E 66 83 5
E 66 84 1
E 66 86 6
E 66 110 48
E 67 77 3
E 67 224 23
E 68 80 2
E 68 239 23
E 68 251 1
E 69 104 6
E 69 105 1
E 69 111 6
E 69 112 6
E 70 104 1
E 70 105 6
E 71 104 6
E 71 111 6
E 72 292 33
E 73 74 1
E 73 93 33
E 74 75 6
E 74 95 33
E 75 76 5
E 76 99 33
E 77 78 5
E 78 79 6
E 78 232 23
E 79 80 1
E 79 235 23
E 80 237 23
E 83 106 48
E 85 89 4
E 86 88 1
E 86 117 48
E 87 88 1
E 87 91 3
E 88 90 2
E 88 120 48
E 89 91 1
E 89 93 2
E 90 92 1
E 90 124 48
E 91 92 1
E 91 94 2
E 92 96 2
E 92 126 48
E 93 94 1
E 93 95 1
E 94 96 1
E 96 97 1
E 96 134 48
E 97 137 48
E 99 101 3
E 100 103 3
E 100 163 48
E 101 102 1
E 102 103 1
E 103 177 52
E 105 109 6
E 106 107 1
E 106 110 5
E 107 108 1
E 107 113 5
E 108 109 3
E 108 114 5
E 109 112 1
E 109 115 5
E 110 113 1
E 110 117 6
E 111 118 6
E 111 222 80
E 112 116 5
E 112 118 6
E 113 114 1
E 113 119 6
E 114 115 3
E 114 121 6
E 115 116 1
E 115 127 6
E 116 130 6
E 116 131 6
E 117 119 1
E 117 120 1
E 118 130 5
E 118 146 11
E 119 121 1
E 119 122 1
E 120 122 1
E 120 124 2
E 121 123 1
E 121 127 3
E 122 123 1
E 122 125 2
E 123 128 2
E 123 132 3
E 124 125 1
E 124 126 1
E 125 128 1
E 125 129 1
E 126 129 1
E 126 134 2
E 127 131 1
E 127 132 1
E 128 133 1
E 128 138 3
E 129 133 1
E 129 136 2
E 130 147 6
E 130 159 11
E 131 135 1
E 131 147 6
E 132 135 1
E 132 138 2
E 133 139 2
E 133 142 3
E 134 136 1
E 134 137 1
E 135 141 2
E 135 151 6
E 136 139 1
E 136 140 1
E 137 140 1
E 137 153 6
E 138 141 1
E 138 142 1
E 139 143 1
E 139 145 3
E 140 143 1
E 140 155 6
E 141 144 1
E 141 156 6
E 142 144 1
E 142 145 2
E 143 149 3
E 143 157 6
E 144 148 2
E 144 158 6
E 145 148 1
E 145 149 1
E 146 150 1
E 146 159 5
E 147 151 1
E 147 169 11
E 148 152 1
E 148 161 6
E 149 152 1
E 149 162 6
E 150 154 1
E 150 160 5
E 151 156 2
E 151 172 11
E 152 165 6
E 152 166 6
E 153 155 1
E 153 163 5
E 154 164 5
E 154 227 64
E 155 157 1
E 155 167 5
E 156 158 1
E 156 238 77
E 157 162 3
E 157 168 5
E 158 161 2
E 158 179 11
E 159 160 1
E 159 169 6
E 160 164 1
E 160 171 6
E 161 165 1
E 161 183 11
E 162 166 1
E 162 170 5
E 163 167 1
E 163 177 7
E 164 174 6
E 164 231 64
E 165 176 6
E 165 185 11
E 166 173 5
E 166 176 6
E 167 168 1
E 168 170 3
E 168 180 7
E 169 171 1
E 169 172 1
E 170 173 1
E 170 187 7
E 171 174 1
E 171 175 1
E 172 175 1
E 172 179 3
E 173 186 6
E 173 190 7
E 174 178 1
E 174 233 64
E 175 178 1
E 175 181 3
E 176 186 5
E 176 194 11
E 178 182 3
E 179 181 1
E 179 183 2
E 180 187 3
E 181 182 1
E 181 184 2
E 182 188 2
E 182 213 27
E 183 184 1
E 183 185 1
E 184 188 1
E 184 189 1
E 185 189 1
E 185 194 6
E 186 197 7
E 186 200 11
E 187 190 1
E 187 193 5
E 188 192 1
E 188 226 46
E 189 192 1
E 189 196 6
E 190 195 5
E 190 197 6
E 192 198 6
E 192 244 64
E 193 195 1
E 193 201 6
E 194 196 1
E 194 200 5
E 195 203 6
E 195 204 6
E 196 198 1
E 196 202 5
E 197 203 5
E 197 206 11
E 198 205 5
E 198 245 64
E 199 201 3
E 200 202 1
E 200 206 7
E 201 204 1
E 202 205 1
E 202 208 7
E 203 207 6
E 203 210 11
E 204 207 6
E 205 209 7
E 205 234 46
E 206 208 1
E 206 210 5
E 207 216 11
E 208 209 1
E 208 211 5
E 209 212 5
E 210 211 1
E 210 216 6
E 211 212 1
E 211 217 6
E 212 218 6
E 213 214 1
E 214 215 1
E 215 223 17
E 216 217 1
E 216 219 6
E 217 218 1
E 217 220 6
E 219 220 1
E 221 249 46
E 222 224 1
E 222 227 3
E 223 225 1
E 223 226 2
E 225 228 2
E 225 229 3
E 226 228 1
E 226 234 12
E 227 231 5
E 228 230 3
E 228 236 12
E 229 230 2
E 229 240 14
E 230 241 12
E 231 232 1
E 231 233 6
E 232 235 6
E 233 235 1
E 234 236 1
E 234 247 24
E 235 237 1
E 236 241 3
E 236 248 24
E 237 239 2
E 238 239 1
E 238 240 1
E 239 242 1
E 240 242 1
E 241 246 14
E 241 252 24
E 242 243 2
E 242 251 23
E 244 245 6
E 245 246 5
E 247 248 1
E 247 249 1
E 248 250 1
E 248 252 3
E 249 250 1
E 249 254 12
E 250 253 3
E 250 255 12
E 252 253 1
E 253 258 12
E 254 255 1
E 254 266 21
E 255 258 3
E 256 257 1
E 256 260 9
E 257 259 1
E 257 261 9
E 258 267 21
E 259 262 9
E 259 266 17
E 260 261 1
E 260 263 6
E 261 262 1
E 261 264 6
E 262 265 6
E 263 264 1
E 264 265 1
E 265 269 17
E 271 273 1
E 271 274 5
E 273 275 5
E 274 275 1
E 278 280 1
E 278 281 5
E 280 282 5
E 281 282 1
E 284 288 8
E 285 286 1
E 285 290 8
E 286 287 1
E 286 291 8
E 287 292 8
E 288 289 1
E 289 290 1
E 290 291 1
E 291 292 1
E 1 293 100000
E 2 293 100000
E 3 294 100000
E 4 294 100000
E 5 295 100000
E 6 295 100000
E 7 296 100000
E 8 296 100000
E 9 297 100000
E 10 297 100000
E 11 298 100000
E 12 298 100000
E 13 299 100000
E 14 299 100000
E 15 300 100000
E 16 300 100000
E 17 301 100000
E 18 301 100000
E 19 302 100000
E 20 302 100000
E 21 303 100000
E 22 303 100000
E 23 304 100000
E 24 304 100000
E 25 305 100000
E 26 305 100000
E 27 306 100000
E 28 306 100000
E 29 307 100000
E 30 307 100000
E 31 308 100000
E 32 308 100000
E 33 309 100000
E 34 309 100000
E 35 310 100000
E 36 310 100000
E 37 310 100000
E 38 310 100000
E 39 311 100000
E 40 311 100000
E 41 312 100000
E 42 312 100000
E 43 313 100000
E 44 313 100000
E 45 314 100000
E 46 314 100000
E 47 314 100000
E 48 314 100000
E 49 315 100000
E 50 315 100000
E 51 315 100000
E 52 315 100000
E 53 316 100000
E 54 316 100000
E 55 317 100000
E 56 317 100000
E 57 317 100000
E 58 317 100000
E 59 318 100000
E 60 318 100000
E 61 319 100000
E 62 319 100000
E 63 320 100000
E 64 320 100000
E 65 320 100000
E 66 320 100000
E 67 321 100000
E 68 321 100000
E 69 322 100000
E 70 322 100000
E 71 322 100000
E 72 323 100000
E 73 318 100000
E 74 318 100000
E 75 318 100000
E 76 318 100000
E 77 321 100000
E 78 321 100000
E 79 321 100000
E 80 321 100000
END

SECTION Terminals
Terminals 31
T 293
T 294
T 295
T 296
T 297
T 298
T 299
T 300
T 301
T 302
T 303
T 304
T 305
T 306
T 307
T 308
T 309
T 310
T 311
T 312
T 313
T 314
T 315
T 316
T 317
T 318
T 319
T 320
T 321
T 322
T 323
END

SECTION Tree Decomposition
c We do not guarantee that this tree decomposition has minimum width.
s td 266 18 323
b 1 323 72
b 2 72 292
b 3 51 82 315
b 4 213 214 182
b 5 214 215 182
b 6 215 223 182
b 7 251 68 242
b 8 50 82 315
b 9 293 2 1
b 10 292 287 291
b 11 294 4 3
b 12 313 44 43
b 13 295 5 6
b 14 44 42 43
b 15 296 8 7
b 16 309 33 34
b 17 308 32 31
b 18 307 29 30
b 19 297 9 10
b 20 305 26 25
b 21 304 23 24
b 22 303 22 21
b 23 298 12 11
b 24 299 13 14
b 25 300 16 15
b 26 301 18 17
b 27 302 19 20
b 28 306 28 27
b 29 4 3 277
b 30 312 42 41
b 31 3 277 284
b 32 277 2 284
b 33 316 54 53
b 34 319 62 61
b 35 311 39 40
b 36 289 288 1 290
b 37 29 270 30 265
b 38 287 286 291 6
b 39 87 91 64 88
b 40 22 15 20 21
b 41 90 88 92 124
b 42 101 60 99 102
b 43 103 102 100 177
b 44 104 71 70 69
b 45 105 70 69 109
b 46 106 107 110 83
b 47 108 107 114 109
b 48 274 21 275 271
b 49 276 18 19 17
b 50 28 27 271 26
b 51 33 34 31 263
b 52 36 269 310 268
b 53 272 23 24 26
b 54 9 10 7 281
b 55 146 150 159 118
b 56 154 150 164 227
b 57 38 267 310 268
b 58 42 43 41 40
b 59 43 41 219 40
b 60 46 191 314 199
b 61 47 191 314 177
b 62 49 82 315 81
b 63 201 199 193 204
b 64 52 82 315 81
b 65 81 60
b 66 257 256 261 259
b 67 207 203 204 216
b 68 209 208 212 205
b 69 322 71 70 69
b 70 253 252 258 250
b 71 54 243 246 53
b 72 16 15 14 278
b 73 218 217 39 212
b 74 222 224 111 227
b 75 223 225 226 182
b 76 229 225 230 240
b 77 59 73 318 89
b 78 243 246 53 242
b 79 244 245 53 192
b 80 63 320 84 83
b 81 65 85 320 84
b 82 2 284 288 1
b 83 270 30 31 265
b 84 284 288 1 40
b 85 288 1 290 40
b 86 67 77 224 321
b 87 1 290 285 40
b 88 279 12 14 11
b 89 290 291 285 40
b 90 283 5 6 7
b 91 71 70 69 111
b 92 260 256 263 261
b 93 70 69 111 109
b 94 69 112 111 109
b 95 236 248 234 228 241
b 96 68 80 239 321 242
b 97 86 66 64 88 117
b 98 249 250 254 247 221
b 99 286 291 285 8 6
b 100 23 24 26 25 30
b 101 93 73 95 89 94
b 102 96 134 97 92 94
b 103 98 58 56 55 57
b 104 60 76 99 102 318
b 105 5 6 7 282 12
b 106 79 80 235 78 321
b 107 280 282 12 14 278
b 108 18 19 17 11 20
b 109 112 111 118 109 116
b 110 113 107 110 114 119
b 111 210 203 211 206 216
b 112 115 127 114 109 116
b 113 120 88 117 122 124
b 114 121 127 114 119 123
b 115 125 128 122 124 129
b 116 126 134 92 124 129
b 117 32 25 30 34 31
b 118 130 159 118 116 147
b 119 131 127 116 147 135
b 120 132 127 123 135 138
b 121 202 208 205 200 196
b 122 133 128 129 139 142
b 123 27 271 26 25 34
b 124 136 134 129 139 140
b 125 137 134 97 153 140
b 126 197 203 190 186 206
b 127 141 144 135 138 156
b 128 195 203 193 204 190
b 129 273 275 271 24 26
b 130 143 149 139 140 157
b 131 145 149 148 139 142
b 132 10 285 8 7 281
b 133 151 172 147 135 156
b 134 189 185 192 196 184
b 135 188 226 192 182 184
b 136 187 180 193 190 170
b 137 152 149 148 165 166
b 138 155 153 140 157 167
b 139 158 144 161 156 179
b 140 160 150 159 171 164
b 141 162 149 157 166 170
b 142 181 175 179 182 184
b 143 41 219 220 221 40
b 144 163 100 153 167 177
b 145 269 310 268 265 37
b 146 168 180 157 167 170
b 147 176 194 186 165 166
b 148 169 159 171 172 147
b 149 173 190 186 166 170
b 150 174 178 233 171 164
b 151 264 31 263 261 265
b 152 183 185 161 179 184
b 153 266 37 259 35 254
b 154 13 15 14 11 20
b 155 198 245 205 192 196
b 156 262 261 265 37 259
b 157 255 35 258 250 254
b 158 237 80 239 235 62
b 159 219 220 221 40 216
b 160 252 258 250 248 241
b 161 231 232 233 164 227
b 162 238 239 62 156 240
b 163 246 245 53 241 242
b 164 256 263 261 259 40
b 165 267 310 268 35 258
b 166 291 285 8 6 40
b 167 76 99 102 318 75
b 168 77 224 61 78 321
b 169 74 73 95 318 75
b 170 317 58 56 55 57
b 171 85 320 84 64 89
b 172 191 314 199 48 45 177
b 173 91 64 88 89 92 94
b 174 99 102 56 318 57 75
b 175 285 8 6 7 281 40
b 176 15 14 278 11 20 21
b 177 73 95 318 75 89 94
b 178 6 7 281 282 12 40
b 179 281 282 12 278 40
b 180 282 12 14 278 40
b 181 12 14 278 11 40
b 182 217 220 39 212 211 216
b 183 199 48 45 193 204 177
b 184 14 278 11 20 21 40
b 185 107 110 83 114 119 109
b 186 19 17 11 20 21 275
b 187 310 268 265 37 35 258
b 188 17 11 20 21 275 24
b 189 11 20 21 275 24 40
b 190 21 275 271 24 40
b 191 275 271 24 26 40
b 192 320 84 83 66 64 89
b 193 271 24 26 25 34 40
b 194 24 26 25 30 34 40
b 195 25 30 34 31 40
b 196 30 34 31 265 40
b 197 34 31 263 265 40
b 198 31 263 261 265 40
b 199 263 261 265 259 40
b 200 261 265 37 259 40
b 201 225 230 228 226 182 240
b 202 265 37 259 35 258 40
b 203 224 111 61 78 227 321
b 204 37 259 35 258 254 40
b 205 35 258 250 254 40
b 206 150 159 118 171 164 227
b 207 48 45 180 193 204 177
b 208 258 250 254 248 40 241
b 209 45 180 193 204 167 177
b 210 95 318 55 57 75 89 94
b 211 250 254 248 247 221 40 241
b 212 110 83 66 117 114 119 109
b 213 102 56 100 318 57 75 177
b 214 248 247 234 221 40 228 241
b 215 247 234 221 39 40 228 241
b 216 208 212 205 200 196 211 206
b 217 175 178 171 172 179 182 184
b 218 194 185 200 196 186 165 166
b 219 245 53 205 241 192 196 242
b 220 80 239 235 62 78 321 242
b 221 232 235 233 61 78 164 227
b 222 220 221 39 40 212 211 216
b 223 58 56 100 55 57 97 153
b 224 230 53 228 241 226 182 240
b 225 144 148 161 135 138 142 156 179
b 226 128 122 123 124 129 138 139 142
b 227 203 193 204 190 211 186 206 216
b 228 83 66 64 117 114 119 89 109
b 229 239 235 62 78 321 156 240 242
b 230 66 64 88 117 114 119 89 109
b 231 234 221 39 40 205 228 241 226
b 232 159 118 171 164 227 172 116 147
b 233 180 193 204 190 157 167 170 177
b 234 111 118 61 78 227 321 109 116
b 235 134 97 153 92 94 124 129 139 140
b 236 64 88 117 114 119 89 92 94 109
b 237 56 100 318 55 57 75 97 153 177
b 238 100 318 55 57 75 97 153 167 177
b 239 149 148 139 140 142 157 165 166 170
b 240 178 62 233 171 164 172 179 182 184
b 241 127 114 119 123 109 116 147 135 138
b 242 318 55 57 75 97 153 89 94 167 177
b 243 88 117 114 119 122 89 92 94 124 109
b 244 221 39 40 212 205 228 241 226 211 216
b 245 185 200 192 196 186 161 165 166 179 184
b 246 212 205 228 241 226 200 196 211 206 216
b 247 53 205 228 241 226 192 196 182 240 242
b 248 97 153 89 92 94 124 129 139 140 167 177
b 249 193 204 190 211 186 206 216 157 167 170 177
b 250 190 211 186 206 216 157 166 167 170 177
b 251 118 171 61 78 164 227 321 172 109 116 147
b 252 235 62 233 61 78 164 227 321 156 240 242
b 253 153 89 92 94 124 129 139 140 157 167 177
b 254 114 119 122 123 89 92 94 124 109 116 147 135 138
b 255 205 228 241 226 200 192 196 211 206 216 182 240 242
b 256 226 200 192 196 211 206 216 182 184 240 242
b 257 148 161 135 138 139 140 142 156 157 165 166 170 179
b 258 122 123 89 92 94 124 129 109 116 147 135 138 139 142
b 259 62 233 171 61 78 164 227 321 172 156 179 182 184 240 242
b 260 200 192 196 211 186 206 216 161 165 166 179 182 184 240 242
b 261 89 92 94 124 129 109 116 147 135 138 139 140 142 157 167 177
b 262 171 61 78 164 227 321 172 109 116 147 156 179 182 184 240 242
b 263 172 109 116 147 135 156 179 182 184 240 242
b 264 211 186 206 216 161 157 165 166 167 170 177 179 182 184 240 242
b 265 109 116 147 135 138 139 140 142 156 157 167 177 179 182 184 240 242
b 266 161 135 138 139 140 142 156 157 165 166 167 170 177 179 182 184 240 242
1 2
2 10
10 38
38 99
99 166
166 175
175 132
175 178
178 105
178 179
179 180
180 107
180 181
181 184
184 176
184 189
189 188
188 186
189 190
176 154
186 108
190 191
191 129
191 193
193 194
193 123
194 100
194 195
195 117
195 196
196 197
197 198
198 151
198 199
199 164
199 200
200 156
200 202
202 204
204 153
202 187
204 205
187 145
187 165
205 157
205 208
208 211
211 214
214 215
215 231
231 244
244 246
246 255
255 256
256 260
260 264
264 266
266 265
266 257
265 261
261 258
258 254
265 263
261 253
263 262
262 259
253 248
259 252
262 251
260 245
255 247
264 250
250 249
257 239
254 241
254 243
259 240
248 235
243 236
257 225
258 226
252 229
251 232
251 234
249 227
249 233
236 230
230 228
246 216
244 222
248 242
242 238
238 237
247 219
247 224
240 217
229 220
252 221
242 210
228 212
237 223
245 218
237 213
236 173
232 206
234 203
233 209
222 182
224 201
210 177
212 185
213 174
209 207
207 183
214 95
256 135
263 133
253 138
245 134
245 152
250 149
239 130
239 131
239 137
239 141
241 112
241 114
241 119
241 120
243 113
240 150
235 102
235 116
235 124
235 125
225 127
225 139
226 115
226 122
229 162
232 118
232 148
234 109
227 111
227 126
227 128
233 136
233 146
230 97
228 192
216 121
222 159
238 144
219 155
219 163
217 142
220 106
220 158
221 161
223 103
223 170
218 147
206 140
203 168
177 101
177 169
185 110
220 96
174 167
183 172
192 171
159 143
167 104
208 160
211 98
176 72
176 40
160 70
143 59
190 48
108 49
132 54
123 50
243 41
100 53
227 67
196 83
216 68
105 90
219 79
197 51
173 39
206 55
206 56
203 74
213 43
182 73
201 76
201 75
177 77
185 47
185 46
183 63
166 89
164 66
164 92
109 94
94 93
192 80
163 78
83 37
168 86
181 88
171 81
89 87
93 45
93 91
78 71
172 61
172 60
59 58
104 42
87 85
91 44
91 69
85 36
85 84
84 82
145 52
165 57
215 35
40 22
58 14
14 12
132 15
186 27
194 20
154 24
108 26
96 7
54 19
259 34
105 13
100 21
50 28
117 17
181 23
51 16
37 18
75 6
6 5
5 4
72 25
71 33
58 30
82 32
32 31
31 29
29 11
82 9
104 65
65 64
64 62
64 3
64 8
END

EOF
